25 56 151
1 3 5
1 12 2
1 18 4
1 20 2
1 21 2
1 24 2
2 9 3
2 19 3
2 20 5
3 5 1
3 6 5
3 7 5
3 12 2
3 14 5
3 20 4
4 11 3
4 12 3
4 22 1
5 12 2
5 20 4
5 25 2
5 10 2
6 20 3
7 12 1
7 20 5
8 18 5
8 20 4
8 21 2
8 23 5
8 24 1
8 25 5
9 14 2
9 15 3
9 23 1
11 13 4
11 17 2
12 22 3
13 15 1
13 20 4
14 16 2
14 17 2
14 18 2
14 19 2
14 24 4
15 20 3
15 21 4
15 23 5
15 25 1
16 18 5
16 25 2
17 24 4
18 21 5
19 20 5
19 23 3
19 25 3
20 22 4
